problem_generation/data/GISP/train/er_n=68_m=1347_p=0.60_SET2_setparam=100.00_alpha=0.50_709.lp
maximize
OBJ:100x0 + 100x1 + 100x2 + 100x3 + 100x4 + 100x5 + 100x6 + 100x7 + 100x8 + 100x9 + 100x10 + 100x11 + 100x12 + 100x13 + 100x14 + 100x15 + 100x16 + 100x17 + 100x18 + 100x19 + 100x20 + 100x21 + 100x22 + 100x23 + 100x24 + 100x25 + 100x26 + 100x27 + 100x28 + 100x29 + 100x30 + 100x31 + 100x32 + 100x33 + 100x34 + 100x35 + 100x36 + 100x37 + 100x38 + 100x39 + 100x40 + 100x41 + 100x42 + 100x43 + 100x44 + 100x45 + 100x46 + 100x47 + 100x48 + 100x49 + 100x50 + 100x51 + 100x52 + 100x53 + 100x54 + 100x55 + 100x56 + 100x57 + 100x58 + 100x59 + 100x60 + 100x61 + 100x62 + 100x63 + 100x64 + 100x65 + 100x66 + 100x67 - y55_57 - y7_17 - y36_53 - y26_30 - y47_53 - y55_66 - y18_26 - y26_39 - y18_35 - y5_65 - y17_67 - y28_67 - y9_63 - y0_5 - y0_14 - y21_46 - y40_59 - y41_51 - y44_47 - y25_52 - y3_24 - y14_24 - y32_60 - y3_33 - y14_33 - y24_65 - y14_42 - y36_57 - y28_53 - y9_58 - y29_36 - y9_67 - y0_9 - y54_65 - y2_36 - y2_45 - y3_10 - y10_58 - y51_59 - y2_54 - y32_55 - y13_51 - y14_28 - y32_64 - y35_60 - y16_56 - y16_65 - y7_16 - y47_52 - y5_46 - y47_61 - y17_66 - y28_66 - y29_49 - y6_56 - y40_58 - y10_17 - y2_13 - y10_26 - y10_35 - y12_63 - y2_40 - y51_54 - y22_27 - y13_46 - y35_46 - y14_23 - y51_63 - y1_53 - y35_55 - y16_51 - y13_64 - y17_43 - y28_43 - y17_52 - y6_15 - y9_57 - y29_35 - y29_44 - y39_48 - y2_8 - y10_30 - y39_66 - y2_26 - y25_28 - y31_62 - y12_67 - y32_45 - y14_18 - y43_63 - y1_57 - y13_59 - y24_59 - y16_55 - y1_66 - y5_27 - y6_19 - y42_58 - y39_43 - y2_3 - y10_16 - y31_48 - y10_25 - y12_44 - y39_61 - y20_57 - y31_57 - y23_53 - y2_30 - y20_66 - y31_66 - y1_34 - y24_36 - y32_49 - y43_49 - y1_43 - y24_45 - y35_54 - y9_11 - y5_22 - y17_24 - y57_60 - y9_29 - y49_65 - y5_40 - y28_42 - y6_23 - y27_55 - y8_51 - y42_53 - y0_56 - y31_34 - y11_65 - y39_47 - y2_7 - y20_52 - y39_65 - y4_53 - y16_18 - y12_66 - y4_62 - y16_27 - y13_40 - y35_40 - y1_56 - y17_19 - y49_51 - y57_64 - y9_33 - y26_67 - y27_41 - y6_18 - y27_50 - y19_46 - y0_60 - y23_25 - y12_34 - y23_34 - y31_47 - y1_15 - y13_17 - y13_35 - y24_35 - y34_67 - y56_67 - y1_42 - y16_40 - y9_10 - y26_53 - y38_55 - y49_55 - y26_62 - y7_58 - y6_13 - y7_67 - y18_67 - y19_41 - y27_54 - y11_37 - y50_56 - y8_50 - y0_46 - y20_24 - y11_55 - y20_42 - y4_25 - y12_38 - y31_51 - y12_56 - y53_57 - y16_17 - y1_28 - y53_66 - y22_60 - y46_54 - y65_67 - y9_14 - y5_25 - y46_63 - y15_57 - y26_57 - y38_59 - y27_31 - y7_62 - y8_27 - y27_40 - y50_51 - y0_32 - y11_32 - y8_45 - y27_58 - y41_60 - y20_37 - y4_20 - y31_37 - y44_65 - y23_42 - y4_38 - y34_48 - y1_23 - y24_25 - y37_44 - y22_55 - y34_57 - y56_66 - y3_60 - y26_34 - y15_52 - y26_61 - y0_18 - y11_18 - y19_31 - y27_44 - y0_27 - y19_40 - y30_49 - y4_6 - y11_54 - y41_55 - y4_15 - y12_28 - y25_65 - y1_18 - y53_56 - y45_52 - y53_65 - y34_61 - y3_55 - y3_64 - y15_29 - y26_29 - y7_25 - y15_38 - y7_43 - y0_4 - y7_52 - y18_52 - y11_13 - y48_62 - y11_22 - y29_58 - y8_35 - y19_35 - y11_31 - y29_67 - y19_44 - y0_40 - y11_49 - y52_59 - y10_53 - y33_55 - y44_55 - y25_51 - y4_28 - y10_62 - y2_67 - y45_47 - y22_54 - y14_59 - y15_33 - y59_67 - y15_42 - y7_38 - y18_38 - y15_51 - y26_51 - y18_47 - y7_56 - y48_57 - y29_53 - y8_30 - y48_66 - y11_26 - y29_62 - y40_62 - y0_35 - y11_35 - y21_67 - y41_54 - y4_14 - y10_48 - y33_50 - y2_44 - y44_50 - y10_57 - y52_63 - y3_36 - y14_45 - y22_58 - y14_54 - y14_63 - y26_28 - y55_64 - y36_60 - y7_33 - y0_3 - y29_39 - y11_21 - y10_34 - y33_36 - y41_49 - y10_43 - y3_13 - y10_61 - y33_63 - y2_57 - y2_66 - y14_40 - y37_42 - y22_53 - y3_49 - y36_46 - y15_23 - y7_19 - y18_19 - y36_55 - y17_60 - y29_34 - y8_11 - y0_7 - y48_56 - y0_16 - y6_50 - y11_16 - y29_61 - y10_29 - y62_67 - y41_44 - y25_27 - y2_34 - y25_36 - y44_49 - y25_45 - y51_57 - y25_54 - y22_30 - y51_66 - y2_61 - y32_62 - y43_62 - y13_58 - y24_58 - y14_44 - y47_50 - y55_63 - y28_46 - y18_23 - y47_59 - y5_53 - y17_55 - y17_64 - y0_2 - y29_38 - y6_45 - y21_43 - y40_56 - y21_61 - y54_58 - y33_35 - y20_65 - y25_40 - y10_51 - y51_52 - y32_48 - y43_48 - y14_21 - y43_66 - y16_58 - y16_67 - y36_54 - y47_54 - y55_67 - y5_48 - y47_63 - y9_46 - y9_64 - y21_29 - y21_38 - y2_15 - y10_28 - y10_37 - y2_33 - y32_34 - y51_56 - y35_39 - y35_48 - y3_25 - y32_61 - y43_61 - y24_57 - y13_66 - y35_66 - y9_32 - y5_43 - y9_41 - y28_54 - y28_63 - y50_60 - y6_35 - y21_33 - y42_65 - y31_46 - y2_28 - y20_64 - y24_34 - y1_50 - y32_65 - y16_48 - y35_61 - y17_31 - y17_49 - y50_64 - y19_67 - y39_45 - y2_5 - y31_41 - y2_14 - y20_50 - y31_50 - y12_46 - y20_59 - y4_42 - y31_59 - y23_55 - y4_51 - y24_29 - y4_60 - y24_38 - y35_38 - y16_34 - y1_45 - y24_56 - y1_63 - y17_26 - y46_62 - y17_35 - y49_67 - y28_44 - y5_51 - y42_46 - y50_59 - y8_53 - y30_53 - y0_49 - y0_58 - y11_58 - y39_40 - y10_13 - y23_32 - y39_49 - y39_58 - y12_41 - y12_50 - y23_50 - y20_63 - y23_59 - y53_60 - y4_55 - y32_37 - y24_33 - y32_46 - y13_42 - y35_42 - y24_51 - y35_51 - y5_19 - y46_57 - y49_53 - y5_28 - y38_62 - y5_37 - y27_52 - y50_54 - y19_48 - y8_57 - y20_22 - y42_59 - y12_18 - y8_66 - y19_66 - y0_62 - y11_62 - y2_4 - y23_36 - y31_49 - y20_58 - y12_54 - y1_17 - y23_54 - y53_55 - y13_28 - y24_28 - y16_24 - y45_60 - y1_35 - y1_44 - y16_42 - y46_52 - y9_21 - y15_55 - y5_32 - y18_51 - y26_55 - y49_57 - y27_29 - y19_34 - y0_30 - y30_43 - y42_45 - y27_56 - y0_39 - y8_52 - y30_61 - y20_26 - y0_57 - y20_35 - y31_35 - y11_66 - y23_31 - y41_67 - y23_40 - y1_3 - y23_49 - y13_14 - y53_59 - y45_55 - y34_64 - y45_64 - y3_58 - y14_67 - y5_9 - y26_41 - y5_18 - y46_56 - y26_50 - y57_65 - y8_20 - y19_20 - y0_25 - y11_25 - y42_49 - y30_56 - y0_52 - y41_53 - y0_61 - y12_26 - y41_62 - y44_67 - y34_41 - y1_16 - y22_48 - y34_59 - y45_59 - y3_62 - y15_27 - y37_64 - y46_51 - y26_45 - y18_41 - y15_54 - y26_54 - y38_56 - y49_56 - y15_63 - y26_63 - y27_28 - y7_59 - y11_20 - y19_33 - y0_29 - y40_65 - y19_51 - y30_51 - y41_48 - y20_25 - y33_53 - y23_30 - y10_60 - y33_62 - y44_62 - y25_58 - y1_11 - y25_67 - y37_41 - y34_54 - y37_50 - y56_63 - y14_57 - y15_22 - y15_40 - y38_42 - y15_49 - y8_10 - y15_58 - y7_54 - y8_19 - y27_32 - y18_63 - y19_28 - y48_64 - y29_60 - y19_37 - y21_65 - y0_42 - y11_42 - y12_16 - y44_48 - y41_61 - y25_44 - y33_57 - y33_66 - y44_66 - y14_34 - y34_49 - y45_49 - y3_43 - y14_43 - y22_56 - y3_52 - y37_54 - y55_62 - y18_22 - y47_67 - y48_50 - y48_59 - y6_53 - y29_55 - y30_32 - y29_64 - y63_66 - y10_41 - y10_50 - y33_52 - y41_65 - y44_52 - y14_20 - y34_35 - y25_66 - y22_42 - y37_49
 Subject to
C1: x0+x1 <=1 
C2: x0+x2-y0_2 <=1 
C3: x0+x3-y0_3 <=1 
C4: x0+x4-y0_4 <=1 
C5: x0+x5-y0_5 <=1 
C6: x0+x7-y0_7 <=1 
C7: x0+x9-y0_9 <=1 
C8: x0+x11 <=1 
C9: x0+x14-y0_14 <=1 
C10: x0+x16-y0_16 <=1 
C11: x0+x17 <=1 
C12: x0+x18-y0_18 <=1 
C13: x0+x20 <=1 
C14: x0+x23 <=1 
C15: x0+x24 <=1 
C16: x0+x25-y0_25 <=1 
C17: x0+x26 <=1 
C18: x0+x27-y0_27 <=1 
C19: x0+x28 <=1 
C20: x0+x29-y0_29 <=1 
C21: x0+x30-y0_30 <=1 
C22: x0+x32-y0_32 <=1 
C23: x0+x35-y0_35 <=1 
C24: x0+x37 <=1 
C25: x0+x38 <=1 
C26: x0+x39-y0_39 <=1 
C27: x0+x40-y0_40 <=1 
C28: x0+x42-y0_42 <=1 
C29: x0+x43 <=1 
C30: x0+x44 <=1 
C31: x0+x46-y0_46 <=1 
C32: x0+x47 <=1 
C33: x0+x48 <=1 
C34: x0+x49-y0_49 <=1 
C35: x0+x50 <=1 
C36: x0+x51 <=1 
C37: x0+x52-y0_52 <=1 
C38: x0+x56-y0_56 <=1 
C39: x0+x57-y0_57 <=1 
C40: x0+x58-y0_58 <=1 
C41: x0+x60-y0_60 <=1 
C42: x0+x61-y0_61 <=1 
C43: x0+x62-y0_62 <=1 
C44: x0+x64 <=1 
C45: x0+x65 <=1 
C46: x1+x3-y1_3 <=1 
C47: x1+x4 <=1 
C48: x1+x5 <=1 
C49: x1+x7 <=1 
C50: x1+x11-y1_11 <=1 
C51: x1+x12 <=1 
C52: x1+x14 <=1 
C53: x1+x15-y1_15 <=1 
C54: x1+x16-y1_16 <=1 
C55: x1+x17-y1_17 <=1 
C56: x1+x18-y1_18 <=1 
C57: x1+x20 <=1 
C58: x1+x21 <=1 
C59: x1+x23-y1_23 <=1 
C60: x1+x24 <=1 
C61: x1+x27 <=1 
C62: x1+x28-y1_28 <=1 
C63: x1+x30 <=1 
C64: x1+x34-y1_34 <=1 
C65: x1+x35-y1_35 <=1 
C66: x1+x37 <=1 
C67: x1+x38 <=1 
C68: x1+x42-y1_42 <=1 
C69: x1+x43-y1_43 <=1 
C70: x1+x44-y1_44 <=1 
C71: x1+x45-y1_45 <=1 
C72: x1+x46 <=1 
C73: x1+x49 <=1 
C74: x1+x50-y1_50 <=1 
C75: x1+x53-y1_53 <=1 
C76: x1+x56-y1_56 <=1 
C77: x1+x57-y1_57 <=1 
C78: x1+x58 <=1 
C79: x1+x59 <=1 
C80: x1+x61 <=1 
C81: x1+x62 <=1 
C82: x1+x63-y1_63 <=1 
C83: x1+x64 <=1 
C84: x1+x65 <=1 
C85: x1+x66-y1_66 <=1 
C86: x2+x3-y2_3 <=1 
C87: x2+x4-y2_4 <=1 
C88: x2+x5-y2_5 <=1 
C89: x2+x6 <=1 
C90: x2+x7-y2_7 <=1 
C91: x2+x8-y2_8 <=1 
C92: x2+x9 <=1 
C93: x2+x12 <=1 
C94: x2+x13-y2_13 <=1 
C95: x2+x14-y2_14 <=1 
C96: x2+x15-y2_15 <=1 
C97: x2+x17 <=1 
C98: x2+x25 <=1 
C99: x2+x26-y2_26 <=1 
C100: x2+x28-y2_28 <=1 
C101: x2+x30-y2_30 <=1 
C102: x2+x31 <=1 
C103: x2+x32 <=1 
C104: x2+x33-y2_33 <=1 
C105: x2+x34-y2_34 <=1 
C106: x2+x36-y2_36 <=1 
C107: x2+x37 <=1 
C108: x2+x40-y2_40 <=1 
C109: x2+x42 <=1 
C110: x2+x43 <=1 
C111: x2+x44-y2_44 <=1 
C112: x2+x45-y2_45 <=1 
C113: x2+x47 <=1 
C114: x2+x52 <=1 
C115: x2+x53 <=1 
C116: x2+x54-y2_54 <=1 
C117: x2+x55 <=1 
C118: x2+x57-y2_57 <=1 
C119: x2+x59 <=1 
C120: x2+x60 <=1 
C121: x2+x61-y2_61 <=1 
C122: x2+x62 <=1 
C123: x2+x63 <=1 
C124: x2+x64 <=1 
C125: x2+x65 <=1 
C126: x2+x66-y2_66 <=1 
C127: x2+x67-y2_67 <=1 
C128: x3+x4 <=1 
C129: x3+x10-y3_10 <=1 
C130: x3+x12 <=1 
C131: x3+x13-y3_13 <=1 
C132: x3+x15 <=1 
C133: x3+x16 <=1 
C134: x3+x18 <=1 
C135: x3+x19 <=1 
C136: x3+x22 <=1 
C137: x3+x23 <=1 
C138: x3+x24-y3_24 <=1 
C139: x3+x25-y3_25 <=1 
C140: x3+x27 <=1 
C141: x3+x30 <=1 
C142: x3+x31 <=1 
C143: x3+x32 <=1 
C144: x3+x33-y3_33 <=1 
C145: x3+x34 <=1 
C146: x3+x35 <=1 
C147: x3+x36-y3_36 <=1 
C148: x3+x38 <=1 
C149: x3+x39 <=1 
C150: x3+x42 <=1 
C151: x3+x43-y3_43 <=1 
C152: x3+x44 <=1 
C153: x3+x45 <=1 
C154: x3+x47 <=1 
C155: x3+x49-y3_49 <=1 
C156: x3+x52-y3_52 <=1 
C157: x3+x53 <=1 
C158: x3+x54 <=1 
C159: x3+x55-y3_55 <=1 
C160: x3+x58-y3_58 <=1 
C161: x3+x60-y3_60 <=1 
C162: x3+x61 <=1 
C163: x3+x62-y3_62 <=1 
C164: x3+x64-y3_64 <=1 
C165: x3+x66 <=1 
C166: x4+x6-y4_6 <=1 
C167: x4+x7 <=1 
C168: x4+x8 <=1 
C169: x4+x10 <=1 
C170: x4+x11 <=1 
C171: x4+x12 <=1 
C172: x4+x13 <=1 
C173: x4+x14-y4_14 <=1 
C174: x4+x15-y4_15 <=1 
C175: x4+x19 <=1 
C176: x4+x20-y4_20 <=1 
C177: x4+x22 <=1 
C178: x4+x23 <=1 
C179: x4+x25-y4_25 <=1 
C180: x4+x27 <=1 
C181: x4+x28-y4_28 <=1 
C182: x4+x33 <=1 
C183: x4+x34 <=1 
C184: x4+x35 <=1 
C185: x4+x38-y4_38 <=1 
C186: x4+x40 <=1 
C187: x4+x42-y4_42 <=1 
C188: x4+x43 <=1 
C189: x4+x47 <=1 
C190: x4+x48 <=1 
C191: x4+x49 <=1 
C192: x4+x50 <=1 
C193: x4+x51-y4_51 <=1 
C194: x4+x52 <=1 
C195: x4+x53-y4_53 <=1 
C196: x4+x54 <=1 
C197: x4+x55-y4_55 <=1 
C198: x4+x56 <=1 
C199: x4+x60-y4_60 <=1 
C200: x4+x62-y4_62 <=1 
C201: x4+x64 <=1 
C202: x4+x67 <=1 
C203: x5+x6 <=1 
C204: x5+x8 <=1 
C205: x5+x9-y5_9 <=1 
C206: x5+x12 <=1 
C207: x5+x13 <=1 
C208: x5+x14 <=1 
C209: x5+x17 <=1 
C210: x5+x18-y5_18 <=1 
C211: x5+x19-y5_19 <=1 
C212: x5+x22-y5_22 <=1 
C213: x5+x24 <=1 
C214: x5+x25-y5_25 <=1 
C215: x5+x26 <=1 
C216: x5+x27-y5_27 <=1 
C217: x5+x28-y5_28 <=1 
C218: x5+x29 <=1 
C219: x5+x30 <=1 
C220: x5+x31 <=1 
C221: x5+x32-y5_32 <=1 
C222: x5+x36 <=1 
C223: x5+x37-y5_37 <=1 
C224: x5+x38 <=1 
C225: x5+x39 <=1 
C226: x5+x40-y5_40 <=1 
C227: x5+x41 <=1 
C228: x5+x42 <=1 
C229: x5+x43-y5_43 <=1 
C230: x5+x46-y5_46 <=1 
C231: x5+x48-y5_48 <=1 
C232: x5+x51-y5_51 <=1 
C233: x5+x53-y5_53 <=1 
C234: x5+x56 <=1 
C235: x5+x57 <=1 
C236: x5+x59 <=1 
C237: x5+x60 <=1 
C238: x5+x64 <=1 
C239: x5+x65-y5_65 <=1 
C240: x6+x9 <=1 
C241: x6+x12 <=1 
C242: x6+x13-y6_13 <=1 
C243: x6+x14 <=1 
C244: x6+x15-y6_15 <=1 
C245: x6+x18-y6_18 <=1 
C246: x6+x19-y6_19 <=1 
C247: x6+x22 <=1 
C248: x6+x23-y6_23 <=1 
C249: x6+x29 <=1 
C250: x6+x31 <=1 
C251: x6+x33 <=1 
C252: x6+x35-y6_35 <=1 
C253: x6+x36 <=1 
C254: x6+x37 <=1 
C255: x6+x39 <=1 
C256: x6+x42 <=1 
C257: x6+x44 <=1 
C258: x6+x45-y6_45 <=1 
C259: x6+x47 <=1 
C260: x6+x48 <=1 
C261: x6+x50-y6_50 <=1 
C262: x6+x51 <=1 
C263: x6+x53-y6_53 <=1 
C264: x6+x54 <=1 
C265: x6+x56-y6_56 <=1 
C266: x6+x58 <=1 
C267: x6+x59 <=1 
C268: x6+x60 <=1 
C269: x6+x61 <=1 
C270: x6+x64 <=1 
C271: x6+x66 <=1 
C272: x7+x10 <=1 
C273: x7+x12 <=1 
C274: x7+x13 <=1 
C275: x7+x15 <=1 
C276: x7+x16-y7_16 <=1 
C277: x7+x17-y7_17 <=1 
C278: x7+x19-y7_19 <=1 
C279: x7+x22 <=1 
C280: x7+x23 <=1 
C281: x7+x24 <=1 
C282: x7+x25-y7_25 <=1 
C283: x7+x27 <=1 
C284: x7+x30 <=1 
C285: x7+x32 <=1 
C286: x7+x33-y7_33 <=1 
C287: x7+x34 <=1 
C288: x7+x38-y7_38 <=1 
C289: x7+x39 <=1 
C290: x7+x40 <=1 
C291: x7+x41 <=1 
C292: x7+x42 <=1 
C293: x7+x43-y7_43 <=1 
C294: x7+x44 <=1 
C295: x7+x47 <=1 
C296: x7+x52-y7_52 <=1 
C297: x7+x53 <=1 
C298: x7+x54-y7_54 <=1 
C299: x7+x56-y7_56 <=1 
C300: x7+x58-y7_58 <=1 
C301: x7+x59-y7_59 <=1 
C302: x7+x62-y7_62 <=1 
C303: x7+x63 <=1 
C304: x7+x64 <=1 
C305: x7+x67-y7_67 <=1 
C306: x8+x9 <=1 
C307: x8+x10-y8_10 <=1 
C308: x8+x11-y8_11 <=1 
C309: x8+x12 <=1 
C310: x8+x13 <=1 
C311: x8+x14 <=1 
C312: x8+x15 <=1 
C313: x8+x17 <=1 
C314: x8+x19-y8_19 <=1 
C315: x8+x20-y8_20 <=1 
C316: x8+x23 <=1 
C317: x8+x24 <=1 
C318: x8+x26 <=1 
C319: x8+x27-y8_27 <=1 
C320: x8+x28 <=1 
C321: x8+x30-y8_30 <=1 
C322: x8+x32 <=1 
C323: x8+x35-y8_35 <=1 
C324: x8+x36 <=1 
C325: x8+x37 <=1 
C326: x8+x38 <=1 
C327: x8+x39 <=1 
C328: x8+x40 <=1 
C329: x8+x44 <=1 
C330: x8+x45-y8_45 <=1 
C331: x8+x46 <=1 
C332: x8+x50-y8_50 <=1 
C333: x8+x51-y8_51 <=1 
C334: x8+x52-y8_52 <=1 
C335: x8+x53-y8_53 <=1 
C336: x8+x55 <=1 
C337: x8+x56 <=1 
C338: x8+x57-y8_57 <=1 
C339: x8+x59 <=1 
C340: x8+x61 <=1 
C341: x8+x62 <=1 
C342: x8+x64 <=1 
C343: x8+x66-y8_66 <=1 
C344: x8+x67 <=1 
C345: x9+x10-y9_10 <=1 
C346: x9+x11-y9_11 <=1 
C347: x9+x13 <=1 
C348: x9+x14-y9_14 <=1 
C349: x9+x16 <=1 
C350: x9+x17 <=1 
C351: x9+x18 <=1 
C352: x9+x20 <=1 
C353: x9+x21-y9_21 <=1 
C354: x9+x24 <=1 
C355: x9+x29-y9_29 <=1 
C356: x9+x32-y9_32 <=1 
C357: x9+x33-y9_33 <=1 
C358: x9+x38 <=1 
C359: x9+x40 <=1 
C360: x9+x41-y9_41 <=1 
C361: x9+x42 <=1 
C362: x9+x46-y9_46 <=1 
C363: x9+x47 <=1 
C364: x9+x48 <=1 
C365: x9+x52 <=1 
C366: x9+x53 <=1 
C367: x9+x56 <=1 
C368: x9+x57-y9_57 <=1 
C369: x9+x58-y9_58 <=1 
C370: x9+x59 <=1 
C371: x9+x60 <=1 
C372: x9+x61 <=1 
C373: x9+x62 <=1 
C374: x9+x63-y9_63 <=1 
C375: x9+x64-y9_64 <=1 
C376: x9+x66 <=1 
C377: x9+x67-y9_67 <=1 
C378: x10+x12 <=1 
C379: x10+x13-y10_13 <=1 
C380: x10+x14 <=1 
C381: x10+x15 <=1 
C382: x10+x16-y10_16 <=1 
C383: x10+x17-y10_17 <=1 
C384: x10+x18 <=1 
C385: x10+x20 <=1 
C386: x10+x22 <=1 
C387: x10+x24 <=1 
C388: x10+x25-y10_25 <=1 
C389: x10+x26-y10_26 <=1 
C390: x10+x28-y10_28 <=1 
C391: x10+x29-y10_29 <=1 
C392: x10+x30-y10_30 <=1 
C393: x10+x31 <=1 
C394: x10+x34-y10_34 <=1 
C395: x10+x35-y10_35 <=1 
C396: x10+x37-y10_37 <=1 
C397: x10+x39 <=1 
C398: x10+x40 <=1 
C399: x10+x41-y10_41 <=1 
C400: x10+x43-y10_43 <=1 
C401: x10+x44 <=1 
C402: x10+x45 <=1 
C403: x10+x46 <=1 
C404: x10+x48-y10_48 <=1 
C405: x10+x50-y10_50 <=1 
C406: x10+x51-y10_51 <=1 
C407: x10+x53-y10_53 <=1 
C408: x10+x56 <=1 
C409: x10+x57-y10_57 <=1 
C410: x10+x58-y10_58 <=1 
C411: x10+x59 <=1 
C412: x10+x60-y10_60 <=1 
C413: x10+x61-y10_61 <=1 
C414: x10+x62-y10_62 <=1 
C415: x10+x64 <=1 
C416: x10+x67 <=1 
C417: x11+x13-y11_13 <=1 
C418: x11+x16-y11_16 <=1 
C419: x11+x18-y11_18 <=1 
C420: x11+x20-y11_20 <=1 
C421: x11+x21-y11_21 <=1 
C422: x11+x22-y11_22 <=1 
C423: x11+x24 <=1 
C424: x11+x25-y11_25 <=1 
C425: x11+x26-y11_26 <=1 
C426: x11+x28 <=1 
C427: x11+x29 <=1 
C428: x11+x30 <=1 
C429: x11+x31-y11_31 <=1 
C430: x11+x32-y11_32 <=1 
C431: x11+x33 <=1 
C432: x11+x34 <=1 
C433: x11+x35-y11_35 <=1 
C434: x11+x37-y11_37 <=1 
C435: x11+x38 <=1 
C436: x11+x39 <=1 
C437: x11+x40 <=1 
C438: x11+x41 <=1 
C439: x11+x42-y11_42 <=1 
C440: x11+x44 <=1 
C441: x11+x45 <=1 
C442: x11+x46 <=1 
C443: x11+x47 <=1 
C444: x11+x49-y11_49 <=1 
C445: x11+x50 <=1 
C446: x11+x51 <=1 
C447: x11+x54-y11_54 <=1 
C448: x11+x55-y11_55 <=1 
C449: x11+x57 <=1 
C450: x11+x58-y11_58 <=1 
C451: x11+x59 <=1 
C452: x11+x62-y11_62 <=1 
C453: x11+x65-y11_65 <=1 
C454: x11+x66-y11_66 <=1 
C455: x12+x13 <=1 
C456: x12+x15 <=1 
C457: x12+x16-y12_16 <=1 
C458: x12+x17 <=1 
C459: x12+x18-y12_18 <=1 
C460: x12+x19 <=1 
C461: x12+x22 <=1 
C462: x12+x23 <=1 
C463: x12+x24 <=1 
C464: x12+x26-y12_26 <=1 
C465: x12+x28-y12_28 <=1 
C466: x12+x29 <=1 
C467: x12+x33 <=1 
C468: x12+x34-y12_34 <=1 
C469: x12+x35 <=1 
C470: x12+x38-y12_38 <=1 
C471: x12+x41-y12_41 <=1 
C472: x12+x44-y12_44 <=1 
C473: x12+x45 <=1 
C474: x12+x46-y12_46 <=1 
C475: x12+x47 <=1 
C476: x12+x49 <=1 
C477: x12+x50-y12_50 <=1 
C478: x12+x51 <=1 
C479: x12+x52 <=1 
C480: x12+x53 <=1 
C481: x12+x54-y12_54 <=1 
C482: x12+x55 <=1 
C483: x12+x56-y12_56 <=1 
C484: x12+x58 <=1 
C485: x12+x62 <=1 
C486: x12+x63-y12_63 <=1 
C487: x12+x65 <=1 
C488: x12+x66-y12_66 <=1 
C489: x12+x67-y12_67 <=1 
C490: x13+x14-y13_14 <=1 
C491: x13+x15 <=1 
C492: x13+x17-y13_17 <=1 
C493: x13+x18 <=1 
C494: x13+x23 <=1 
C495: x13+x24 <=1 
C496: x13+x28-y13_28 <=1 
C497: x13+x35-y13_35 <=1 
C498: x13+x36 <=1 
C499: x13+x40-y13_40 <=1 
C500: x13+x41 <=1 
C501: x13+x42-y13_42 <=1 
C502: x13+x45 <=1 
C503: x13+x46-y13_46 <=1 
C504: x13+x48 <=1 
C505: x13+x49 <=1 
C506: x13+x50 <=1 
C507: x13+x51-y13_51 <=1 
C508: x13+x54 <=1 
C509: x13+x55 <=1 
C510: x13+x58-y13_58 <=1 
C511: x13+x59-y13_59 <=1 
C512: x13+x63 <=1 
C513: x13+x64-y13_64 <=1 
C514: x13+x66-y13_66 <=1 
C515: x14+x16 <=1 
C516: x14+x18-y14_18 <=1 
C517: x14+x20-y14_20 <=1 
C518: x14+x21-y14_21 <=1 
C519: x14+x22 <=1 
C520: x14+x23-y14_23 <=1 
C521: x14+x24-y14_24 <=1 
C522: x14+x25 <=1 
C523: x14+x26 <=1 
C524: x14+x27 <=1 
C525: x14+x28-y14_28 <=1 
C526: x14+x31 <=1 
C527: x14+x33-y14_33 <=1 
C528: x14+x34-y14_34 <=1 
C529: x14+x40-y14_40 <=1 
C530: x14+x42-y14_42 <=1 
C531: x14+x43-y14_43 <=1 
C532: x14+x44-y14_44 <=1 
C533: x14+x45-y14_45 <=1 
C534: x14+x49 <=1 
C535: x14+x51 <=1 
C536: x14+x52 <=1 
C537: x14+x53 <=1 
C538: x14+x54-y14_54 <=1 
C539: x14+x55 <=1 
C540: x14+x57-y14_57 <=1 
C541: x14+x58 <=1 
C542: x14+x59-y14_59 <=1 
C543: x14+x60 <=1 
C544: x14+x63-y14_63 <=1 
C545: x14+x66 <=1 
C546: x14+x67-y14_67 <=1 
C547: x15+x18 <=1 
C548: x15+x20 <=1 
C549: x15+x22-y15_22 <=1 
C550: x15+x23-y15_23 <=1 
C551: x15+x24 <=1 
C552: x15+x25 <=1 
C553: x15+x27-y15_27 <=1 
C554: x15+x29-y15_29 <=1 
C555: x15+x33-y15_33 <=1 
C556: x15+x35 <=1 
C557: x15+x36 <=1 
C558: x15+x37 <=1 
C559: x15+x38-y15_38 <=1 
C560: x15+x39 <=1 
C561: x15+x40-y15_40 <=1 
C562: x15+x42-y15_42 <=1 
C563: x15+x44 <=1 
C564: x15+x45 <=1 
C565: x15+x47 <=1 
C566: x15+x48 <=1 
C567: x15+x49-y15_49 <=1 
C568: x15+x51-y15_51 <=1 
C569: x15+x52-y15_52 <=1 
C570: x15+x54-y15_54 <=1 
C571: x15+x55-y15_55 <=1 
C572: x15+x56 <=1 
C573: x15+x57-y15_57 <=1 
C574: x15+x58-y15_58 <=1 
C575: x15+x63-y15_63 <=1 
C576: x15+x64 <=1 
C577: x15+x65 <=1 
C578: x15+x66 <=1 
C579: x16+x17-y16_17 <=1 
C580: x16+x18-y16_18 <=1 
C581: x16+x19 <=1 
C582: x16+x21 <=1 
C583: x16+x24-y16_24 <=1 
C584: x16+x26 <=1 
C585: x16+x27-y16_27 <=1 
C586: x16+x28 <=1 
C587: x16+x31 <=1 
C588: x16+x33 <=1 
C589: x16+x34-y16_34 <=1 
C590: x16+x35 <=1 
C591: x16+x37 <=1 
C592: x16+x39 <=1 
C593: x16+x40-y16_40 <=1 
C594: x16+x42-y16_42 <=1 
C595: x16+x43 <=1 
C596: x16+x46 <=1 
C597: x16+x47 <=1 
C598: x16+x48-y16_48 <=1 
C599: x16+x50 <=1 
C600: x16+x51-y16_51 <=1 
C601: x16+x55-y16_55 <=1 
C602: x16+x56-y16_56 <=1 
C603: x16+x57 <=1 
C604: x16+x58-y16_58 <=1 
C605: x16+x61 <=1 
C606: x16+x62 <=1 
C607: x16+x63 <=1 
C608: x16+x65-y16_65 <=1 
C609: x16+x67-y16_67 <=1 
C610: x17+x19-y17_19 <=1 
C611: x17+x21 <=1 
C612: x17+x24-y17_24 <=1 
C613: x17+x25 <=1 
C614: x17+x26-y17_26 <=1 
C615: x17+x29 <=1 
C616: x17+x30 <=1 
C617: x17+x31-y17_31 <=1 
C618: x17+x34 <=1 
C619: x17+x35-y17_35 <=1 
C620: x17+x38 <=1 
C621: x17+x42 <=1 
C622: x17+x43-y17_43 <=1 
C623: x17+x45 <=1 
C624: x17+x47 <=1 
C625: x17+x48 <=1 
C626: x17+x49-y17_49 <=1 
C627: x17+x50 <=1 
C628: x17+x52-y17_52 <=1 
C629: x17+x55-y17_55 <=1 
C630: x17+x56 <=1 
C631: x17+x60-y17_60 <=1 
C632: x17+x62 <=1 
C633: x17+x64-y17_64 <=1 
C634: x17+x66-y17_66 <=1 
C635: x17+x67-y17_67 <=1 
C636: x18+x19-y18_19 <=1 
C637: x18+x21 <=1 
C638: x18+x22-y18_22 <=1 
C639: x18+x23-y18_23 <=1 
C640: x18+x26-y18_26 <=1 
C641: x18+x28 <=1 
C642: x18+x32 <=1 
C643: x18+x35-y18_35 <=1 
C644: x18+x38-y18_38 <=1 
C645: x18+x40 <=1 
C646: x18+x41-y18_41 <=1 
C647: x18+x42 <=1 
C648: x18+x45 <=1 
C649: x18+x47-y18_47 <=1 
C650: x18+x49 <=1 
C651: x18+x51-y18_51 <=1 
C652: x18+x52-y18_52 <=1 
C653: x18+x55 <=1 
C654: x18+x56 <=1 
C655: x18+x58 <=1 
C656: x18+x59 <=1 
C657: x18+x60 <=1 
C658: x18+x62 <=1 
C659: x18+x63-y18_63 <=1 
C660: x18+x65 <=1 
C661: x18+x66 <=1 
C662: x18+x67-y18_67 <=1 
C663: x19+x20-y19_20 <=1 
C664: x19+x21 <=1 
C665: x19+x22 <=1 
C666: x19+x25 <=1 
C667: x19+x26 <=1 
C668: x19+x27 <=1 
C669: x19+x28-y19_28 <=1 
C670: x19+x30 <=1 
C671: x19+x31-y19_31 <=1 
C672: x19+x33-y19_33 <=1 
C673: x19+x34-y19_34 <=1 
C674: x19+x35-y19_35 <=1 
C675: x19+x37-y19_37 <=1 
C676: x19+x38 <=1 
C677: x19+x39 <=1 
C678: x19+x40-y19_40 <=1 
C679: x19+x41-y19_41 <=1 
C680: x19+x43 <=1 
C681: x19+x44-y19_44 <=1 
C682: x19+x46-y19_46 <=1 
C683: x19+x47 <=1 
C684: x19+x48-y19_48 <=1 
C685: x19+x50 <=1 
C686: x19+x51-y19_51 <=1 
C687: x19+x52 <=1 
C688: x19+x53 <=1 
C689: x19+x54 <=1 
C690: x19+x57 <=1 
C691: x19+x61 <=1 
C692: x19+x66-y19_66 <=1 
C693: x19+x67-y19_67 <=1 
C694: x20+x21 <=1 
C695: x20+x22-y20_22 <=1 
C696: x20+x24-y20_24 <=1 
C697: x20+x25-y20_25 <=1 
C698: x20+x26-y20_26 <=1 
C699: x20+x28 <=1 
C700: x20+x29 <=1 
C701: x20+x33 <=1 
C702: x20+x35-y20_35 <=1 
C703: x20+x37-y20_37 <=1 
C704: x20+x42-y20_42 <=1 
C705: x20+x44 <=1 
C706: x20+x46 <=1 
C707: x20+x50-y20_50 <=1 
C708: x20+x52-y20_52 <=1 
C709: x20+x55 <=1 
C710: x20+x56 <=1 
C711: x20+x57-y20_57 <=1 
C712: x20+x58-y20_58 <=1 
C713: x20+x59-y20_59 <=1 
C714: x20+x61 <=1 
C715: x20+x63-y20_63 <=1 
C716: x20+x64-y20_64 <=1 
C717: x20+x65-y20_65 <=1 
C718: x20+x66-y20_66 <=1 
C719: x21+x22 <=1 
C720: x21+x26 <=1 
C721: x21+x27 <=1 
C722: x21+x28 <=1 
C723: x21+x29-y21_29 <=1 
C724: x21+x31 <=1 
C725: x21+x33-y21_33 <=1 
C726: x21+x35 <=1 
C727: x21+x37 <=1 
C728: x21+x38-y21_38 <=1 
C729: x21+x42 <=1 
C730: x21+x43-y21_43 <=1 
C731: x21+x46-y21_46 <=1 
C732: x21+x47 <=1 
C733: x21+x48 <=1 
C734: x21+x49 <=1 
C735: x21+x50 <=1 
C736: x21+x51 <=1 
C737: x21+x55 <=1 
C738: x21+x61-y21_61 <=1 
C739: x21+x65-y21_65 <=1 
C740: x21+x66 <=1 
C741: x21+x67-y21_67 <=1 
C742: x22+x26 <=1 
C743: x22+x27-y22_27 <=1 
C744: x22+x29 <=1 
C745: x22+x30-y22_30 <=1 
C746: x22+x31 <=1 
C747: x22+x32 <=1 
C748: x22+x33 <=1 
C749: x22+x35 <=1 
C750: x22+x37 <=1 
C751: x22+x38 <=1 
C752: x22+x41 <=1 
C753: x22+x42-y22_42 <=1 
C754: x22+x44 <=1 
C755: x22+x45 <=1 
C756: x22+x48-y22_48 <=1 
C757: x22+x49 <=1 
C758: x22+x53-y22_53 <=1 
C759: x22+x54-y22_54 <=1 
C760: x22+x55-y22_55 <=1 
C761: x22+x56-y22_56 <=1 
C762: x22+x57 <=1 
C763: x22+x58-y22_58 <=1 
C764: x22+x60-y22_60 <=1 
C765: x22+x62 <=1 
C766: x23+x25-y23_25 <=1 
C767: x23+x26 <=1 
C768: x23+x28 <=1 
C769: x23+x30-y23_30 <=1 
C770: x23+x31-y23_31 <=1 
C771: x23+x32-y23_32 <=1 
C772: x23+x33 <=1 
C773: x23+x34-y23_34 <=1 
C774: x23+x36-y23_36 <=1 
C775: x23+x37 <=1 
C776: x23+x38 <=1 
C777: x23+x40-y23_40 <=1 
C778: x23+x42-y23_42 <=1 
C779: x23+x43 <=1 
C780: x23+x44 <=1 
C781: x23+x45 <=1 
C782: x23+x49-y23_49 <=1 
C783: x23+x50-y23_50 <=1 
C784: x23+x51 <=1 
C785: x23+x52 <=1 
C786: x23+x53-y23_53 <=1 
C787: x23+x54-y23_54 <=1 
C788: x23+x55-y23_55 <=1 
C789: x23+x56 <=1 
C790: x23+x58 <=1 
C791: x23+x59-y23_59 <=1 
C792: x23+x62 <=1 
C793: x23+x64 <=1 
C794: x23+x67 <=1 
C795: x24+x25-y24_25 <=1 
C796: x24+x28-y24_28 <=1 
C797: x24+x29-y24_29 <=1 
C798: x24+x30 <=1 
C799: x24+x33-y24_33 <=1 
C800: x24+x34-y24_34 <=1 
C801: x24+x35-y24_35 <=1 
C802: x24+x36-y24_36 <=1 
C803: x24+x37 <=1 
C804: x24+x38-y24_38 <=1 
C805: x24+x39 <=1 
C806: x24+x40 <=1 
C807: x24+x45-y24_45 <=1 
C808: x24+x48 <=1 
C809: x24+x50 <=1 
C810: x24+x51-y24_51 <=1 
C811: x24+x52 <=1 
C812: x24+x56-y24_56 <=1 
C813: x24+x57-y24_57 <=1 
C814: x24+x58-y24_58 <=1 
C815: x24+x59-y24_59 <=1 
C816: x24+x61 <=1 
C817: x24+x63 <=1 
C818: x24+x64 <=1 
C819: x24+x65-y24_65 <=1 
C820: x25+x27-y25_27 <=1 
C821: x25+x28-y25_28 <=1 
C822: x25+x30 <=1 
C823: x25+x34 <=1 
C824: x25+x35 <=1 
C825: x25+x36-y25_36 <=1 
C826: x25+x40-y25_40 <=1 
C827: x25+x41 <=1 
C828: x25+x42 <=1 
C829: x25+x44-y25_44 <=1 
C830: x25+x45-y25_45 <=1 
C831: x25+x51-y25_51 <=1 
C832: x25+x52-y25_52 <=1 
C833: x25+x53 <=1 
C834: x25+x54-y25_54 <=1 
C835: x25+x55 <=1 
C836: x25+x56 <=1 
C837: x25+x58-y25_58 <=1 
C838: x25+x59 <=1 
C839: x25+x62 <=1 
C840: x25+x63 <=1 
C841: x25+x64 <=1 
C842: x25+x65-y25_65 <=1 
C843: x25+x66-y25_66 <=1 
C844: x25+x67-y25_67 <=1 
C845: x26+x28-y26_28 <=1 
C846: x26+x29-y26_29 <=1 
C847: x26+x30-y26_30 <=1 
C848: x26+x34-y26_34 <=1 
C849: x26+x36 <=1 
C850: x26+x38 <=1 
C851: x26+x39-y26_39 <=1 
C852: x26+x40 <=1 
C853: x26+x41-y26_41 <=1 
C854: x26+x45-y26_45 <=1 
C855: x26+x47 <=1 
C856: x26+x50-y26_50 <=1 
C857: x26+x51-y26_51 <=1 
C858: x26+x52 <=1 
C859: x26+x53-y26_53 <=1 
C860: x26+x54-y26_54 <=1 
C861: x26+x55-y26_55 <=1 
C862: x26+x56 <=1 
C863: x26+x57-y26_57 <=1 
C864: x26+x58 <=1 
C865: x26+x60 <=1 
C866: x26+x61-y26_61 <=1 
C867: x26+x62-y26_62 <=1 
C868: x26+x63-y26_63 <=1 
C869: x26+x64 <=1 
C870: x26+x67-y26_67 <=1 
C871: x27+x28-y27_28 <=1 
C872: x27+x29-y27_29 <=1 
C873: x27+x31-y27_31 <=1 
C874: x27+x32-y27_32 <=1 
C875: x27+x33 <=1 
C876: x27+x36 <=1 
C877: x27+x40-y27_40 <=1 
C878: x27+x41-y27_41 <=1 
C879: x27+x44-y27_44 <=1 
C880: x27+x45 <=1 
C881: x27+x47 <=1 
C882: x27+x50-y27_50 <=1 
C883: x27+x51 <=1 
C884: x27+x52-y27_52 <=1 
C885: x27+x54-y27_54 <=1 
C886: x27+x55-y27_55 <=1 
C887: x27+x56-y27_56 <=1 
C888: x27+x57 <=1 
C889: x27+x58-y27_58 <=1 
C890: x27+x60 <=1 
C891: x27+x64 <=1 
C892: x28+x31 <=1 
C893: x28+x32 <=1 
C894: x28+x33 <=1 
C895: x28+x36 <=1 
C896: x28+x37 <=1 
C897: x28+x39 <=1 
C898: x28+x41 <=1 
C899: x28+x42-y28_42 <=1 
C900: x28+x43-y28_43 <=1 
C901: x28+x44-y28_44 <=1 
C902: x28+x45 <=1 
C903: x28+x46-y28_46 <=1 
C904: x28+x50 <=1 
C905: x28+x51 <=1 
C906: x28+x52 <=1 
C907: x28+x53-y28_53 <=1 
C908: x28+x54-y28_54 <=1 
C909: x28+x57 <=1 
C910: x28+x63-y28_63 <=1 
C911: x28+x64 <=1 
C912: x28+x65 <=1 
C913: x28+x66-y28_66 <=1 
C914: x28+x67-y28_67 <=1 
C915: x29+x30 <=1 
C916: x29+x34-y29_34 <=1 
C917: x29+x35-y29_35 <=1 
C918: x29+x36-y29_36 <=1 
C919: x29+x38-y29_38 <=1 
C920: x29+x39-y29_39 <=1 
C921: x29+x43 <=1 
C922: x29+x44-y29_44 <=1 
C923: x29+x46 <=1 
C924: x29+x49-y29_49 <=1 
C925: x29+x52 <=1 
C926: x29+x53-y29_53 <=1 
C927: x29+x54 <=1 
C928: x29+x55-y29_55 <=1 
C929: x29+x56 <=1 
C930: x29+x58-y29_58 <=1 
C931: x29+x59 <=1 
C932: x29+x60-y29_60 <=1 
C933: x29+x61-y29_61 <=1 
C934: x29+x62-y29_62 <=1 
C935: x29+x63 <=1 
C936: x29+x64-y29_64 <=1 
C937: x29+x66 <=1 
C938: x29+x67-y29_67 <=1 
C939: x30+x32-y30_32 <=1 
C940: x30+x33 <=1 
C941: x30+x34 <=1 
C942: x30+x37 <=1 
C943: x30+x42 <=1 
C944: x30+x43-y30_43 <=1 
C945: x30+x45 <=1 
C946: x30+x49-y30_49 <=1 
C947: x30+x51-y30_51 <=1 
C948: x30+x52 <=1 
C949: x30+x53-y30_53 <=1 
C950: x30+x56-y30_56 <=1 
C951: x30+x57 <=1 
C952: x30+x59 <=1 
C953: x30+x61-y30_61 <=1 
C954: x30+x62 <=1 
C955: x30+x64 <=1 
C956: x30+x65 <=1 
C957: x31+x33 <=1 
C958: x31+x34-y31_34 <=1 
C959: x31+x35-y31_35 <=1 
C960: x31+x37-y31_37 <=1 
C961: x31+x38 <=1 
C962: x31+x41-y31_41 <=1 
C963: x31+x43 <=1 
C964: x31+x46-y31_46 <=1 
C965: x31+x47-y31_47 <=1 
C966: x31+x48-y31_48 <=1 
C967: x31+x49-y31_49 <=1 
C968: x31+x50-y31_50 <=1 
C969: x31+x51-y31_51 <=1 
C970: x31+x52 <=1 
C971: x31+x53 <=1 
C972: x31+x54 <=1 
C973: x31+x57-y31_57 <=1 
C974: x31+x58 <=1 
C975: x31+x59-y31_59 <=1 
C976: x31+x61 <=1 
C977: x31+x62-y31_62 <=1 
C978: x31+x63 <=1 
C979: x31+x65 <=1 
C980: x31+x66-y31_66 <=1 
C981: x32+x34-y32_34 <=1 
C982: x32+x37-y32_37 <=1 
C983: x32+x38 <=1 
C984: x32+x39 <=1 
C985: x32+x40 <=1 
C986: x32+x45-y32_45 <=1 
C987: x32+x46-y32_46 <=1 
C988: x32+x48-y32_48 <=1 
C989: x32+x49-y32_49 <=1 
C990: x32+x51 <=1 
C991: x32+x52 <=1 
C992: x32+x54 <=1 
C993: x32+x55-y32_55 <=1 
C994: x32+x56 <=1 
C995: x32+x57 <=1 
C996: x32+x60-y32_60 <=1 
C997: x32+x61-y32_61 <=1 
C998: x32+x62-y32_62 <=1 
C999: x32+x64-y32_64 <=1 
C1000: x32+x65-y32_65 <=1 
C1001: x32+x67 <=1 
C1002: x33+x35-y33_35 <=1 
C1003: x33+x36-y33_36 <=1 
C1004: x33+x40 <=1 
C1005: x33+x41 <=1 
C1006: x33+x43 <=1 
C1007: x33+x44 <=1 
C1008: x33+x50-y33_50 <=1 
C1009: x33+x52-y33_52 <=1 
C1010: x33+x53-y33_53 <=1 
C1011: x33+x54 <=1 
C1012: x33+x55-y33_55 <=1 
C1013: x33+x57-y33_57 <=1 
C1014: x33+x58 <=1 
C1015: x33+x60 <=1 
C1016: x33+x62-y33_62 <=1 
C1017: x33+x63-y33_63 <=1 
C1018: x33+x66-y33_66 <=1 
C1019: x33+x67 <=1 
C1020: x34+x35-y34_35 <=1 
C1021: x34+x36 <=1 
C1022: x34+x37 <=1 
C1023: x34+x39 <=1 
C1024: x34+x40 <=1 
C1025: x34+x41-y34_41 <=1 
C1026: x34+x44 <=1 
C1027: x34+x46 <=1 
C1028: x34+x48-y34_48 <=1 
C1029: x34+x49-y34_49 <=1 
C1030: x34+x50 <=1 
C1031: x34+x51 <=1 
C1032: x34+x52 <=1 
C1033: x34+x53 <=1 
C1034: x34+x54-y34_54 <=1 
C1035: x34+x55 <=1 
C1036: x34+x57-y34_57 <=1 
C1037: x34+x59-y34_59 <=1 
C1038: x34+x60 <=1 
C1039: x34+x61-y34_61 <=1 
C1040: x34+x63 <=1 
C1041: x34+x64-y34_64 <=1 
C1042: x34+x67-y34_67 <=1 
C1043: x35+x38-y35_38 <=1 
C1044: x35+x39-y35_39 <=1 
C1045: x35+x40-y35_40 <=1 
C1046: x35+x42-y35_42 <=1 
C1047: x35+x43 <=1 
C1048: x35+x44 <=1 
C1049: x35+x46-y35_46 <=1 
C1050: x35+x48-y35_48 <=1 
C1051: x35+x51-y35_51 <=1 
C1052: x35+x54-y35_54 <=1 
C1053: x35+x55-y35_55 <=1 
C1054: x35+x57 <=1 
C1055: x35+x60-y35_60 <=1 
C1056: x35+x61-y35_61 <=1 
C1057: x35+x62 <=1 
C1058: x35+x66-y35_66 <=1 
C1059: x35+x67 <=1 
C1060: x36+x37 <=1 
C1061: x36+x44 <=1 
C1062: x36+x46-y36_46 <=1 
C1063: x36+x47 <=1 
C1064: x36+x48 <=1 
C1065: x36+x52 <=1 
C1066: x36+x53-y36_53 <=1 
C1067: x36+x54-y36_54 <=1 
C1068: x36+x55-y36_55 <=1 
C1069: x36+x57-y36_57 <=1 
C1070: x36+x60-y36_60 <=1 
C1071: x36+x61 <=1 
C1072: x36+x62 <=1 
C1073: x36+x64 <=1 
C1074: x36+x66 <=1 
C1075: x37+x39 <=1 
C1076: x37+x40 <=1 
C1077: x37+x41-y37_41 <=1 
C1078: x37+x42-y37_42 <=1 
C1079: x37+x43 <=1 
C1080: x37+x44-y37_44 <=1 
C1081: x37+x45 <=1 
C1082: x37+x46 <=1 
C1083: x37+x48 <=1 
C1084: x37+x49-y37_49 <=1 
C1085: x37+x50-y37_50 <=1 
C1086: x37+x54-y37_54 <=1 
C1087: x37+x55 <=1 
C1088: x37+x59 <=1 
C1089: x37+x60 <=1 
C1090: x37+x62 <=1 
C1091: x37+x64-y37_64 <=1 
C1092: x37+x66 <=1 
C1093: x38+x40 <=1 
C1094: x38+x41 <=1 
C1095: x38+x42-y38_42 <=1 
C1096: x38+x43 <=1 
C1097: x38+x48 <=1 
C1098: x38+x50 <=1 
C1099: x38+x52 <=1 
C1100: x38+x55-y38_55 <=1 
C1101: x38+x56-y38_56 <=1 
C1102: x38+x57 <=1 
C1103: x38+x59-y38_59 <=1 
C1104: x38+x60 <=1 
C1105: x38+x62-y38_62 <=1 
C1106: x38+x63 <=1 
C1107: x38+x64 <=1 
C1108: x39+x40-y39_40 <=1 
C1109: x39+x43-y39_43 <=1 
C1110: x39+x44 <=1 
C1111: x39+x45-y39_45 <=1 
C1112: x39+x47-y39_47 <=1 
C1113: x39+x48-y39_48 <=1 
C1114: x39+x49-y39_49 <=1 
C1115: x39+x50 <=1 
C1116: x39+x56 <=1 
C1117: x39+x58-y39_58 <=1 
C1118: x39+x60 <=1 
C1119: x39+x61-y39_61 <=1 
C1120: x39+x64 <=1 
C1121: x39+x65-y39_65 <=1 
C1122: x39+x66-y39_66 <=1 
C1123: x39+x67 <=1 
C1124: x40+x44 <=1 
C1125: x40+x46 <=1 
C1126: x40+x53 <=1 
C1127: x40+x55 <=1 
C1128: x40+x56-y40_56 <=1 
C1129: x40+x58-y40_58 <=1 
C1130: x40+x59-y40_59 <=1 
C1131: x40+x60 <=1 
C1132: x40+x62-y40_62 <=1 
C1133: x40+x64 <=1 
C1134: x40+x65-y40_65 <=1 
C1135: x40+x66 <=1 
C1136: x41+x42 <=1 
C1137: x41+x44-y41_44 <=1 
C1138: x41+x45 <=1 
C1139: x41+x48-y41_48 <=1 
C1140: x41+x49-y41_49 <=1 
C1141: x41+x50 <=1 
C1142: x41+x51-y41_51 <=1 
C1143: x41+x52 <=1 
C1144: x41+x53-y41_53 <=1 
C1145: x41+x54-y41_54 <=1 
C1146: x41+x55-y41_55 <=1 
C1147: x41+x56 <=1 
C1148: x41+x60-y41_60 <=1 
C1149: x41+x61-y41_61 <=1 
C1150: x41+x62-y41_62 <=1 
C1151: x41+x64 <=1 
C1152: x41+x65-y41_65 <=1 
C1153: x41+x66 <=1 
C1154: x41+x67-y41_67 <=1 
C1155: x42+x43 <=1 
C1156: x42+x45-y42_45 <=1 
C1157: x42+x46-y42_46 <=1 
C1158: x42+x47 <=1 
C1159: x42+x49-y42_49 <=1 
C1160: x42+x51 <=1 
C1161: x42+x53-y42_53 <=1 
C1162: x42+x58-y42_58 <=1 
C1163: x42+x59-y42_59 <=1 
C1164: x42+x62 <=1 
C1165: x42+x63 <=1 
C1166: x42+x65-y42_65 <=1 
C1167: x43+x47 <=1 
C1168: x43+x48-y43_48 <=1 
C1169: x43+x49-y43_49 <=1 
C1170: x43+x50 <=1 
C1171: x43+x53 <=1 
C1172: x43+x54 <=1 
C1173: x43+x55 <=1 
C1174: x43+x56 <=1 
C1175: x43+x57 <=1 
C1176: x43+x59 <=1 
C1177: x43+x61-y43_61 <=1 
C1178: x43+x62-y43_62 <=1 
C1179: x43+x63-y43_63 <=1 
C1180: x43+x64 <=1 
C1181: x43+x65 <=1 
C1182: x43+x66-y43_66 <=1 
C1183: x44+x45 <=1 
C1184: x44+x47-y44_47 <=1 
C1185: x44+x48-y44_48 <=1 
C1186: x44+x49-y44_49 <=1 
C1187: x44+x50-y44_50 <=1 
C1188: x44+x52-y44_52 <=1 
C1189: x44+x54 <=1 
C1190: x44+x55-y44_55 <=1 
C1191: x44+x57 <=1 
C1192: x44+x58 <=1 
C1193: x44+x61 <=1 
C1194: x44+x62-y44_62 <=1 
C1195: x44+x64 <=1 
C1196: x44+x65-y44_65 <=1 
C1197: x44+x66-y44_66 <=1 
C1198: x44+x67-y44_67 <=1 
C1199: x45+x46 <=1 
C1200: x45+x47-y45_47 <=1 
C1201: x45+x48 <=1 
C1202: x45+x49-y45_49 <=1 
C1203: x45+x50 <=1 
C1204: x45+x51 <=1 
C1205: x45+x52-y45_52 <=1 
C1206: x45+x54 <=1 
C1207: x45+x55-y45_55 <=1 
C1208: x45+x59-y45_59 <=1 
C1209: x45+x60-y45_60 <=1 
C1210: x45+x62 <=1 
C1211: x45+x63 <=1 
C1212: x45+x64-y45_64 <=1 
C1213: x45+x67 <=1 
C1214: x46+x51-y46_51 <=1 
C1215: x46+x52-y46_52 <=1 
C1216: x46+x53 <=1 
C1217: x46+x54-y46_54 <=1 
C1218: x46+x56-y46_56 <=1 
C1219: x46+x57-y46_57 <=1 
C1220: x46+x58 <=1 
C1221: x46+x59 <=1 
C1222: x46+x60 <=1 
C1223: x46+x62-y46_62 <=1 
C1224: x46+x63-y46_63 <=1 
C1225: x46+x64 <=1 
C1226: x46+x66 <=1 
C1227: x46+x67 <=1 
C1228: x47+x50-y47_50 <=1 
C1229: x47+x52-y47_52 <=1 
C1230: x47+x53-y47_53 <=1 
C1231: x47+x54-y47_54 <=1 
C1232: x47+x56 <=1 
C1233: x47+x59-y47_59 <=1 
C1234: x47+x61-y47_61 <=1 
C1235: x47+x62 <=1 
C1236: x47+x63-y47_63 <=1 
C1237: x47+x64 <=1 
C1238: x47+x67-y47_67 <=1 
C1239: x48+x50-y48_50 <=1 
C1240: x48+x54 <=1 
C1241: x48+x55 <=1 
C1242: x48+x56-y48_56 <=1 
C1243: x48+x57-y48_57 <=1 
C1244: x48+x58 <=1 
C1245: x48+x59-y48_59 <=1 
C1246: x48+x60 <=1 
C1247: x48+x61 <=1 
C1248: x48+x62-y48_62 <=1 
C1249: x48+x63 <=1 
C1250: x48+x64-y48_64 <=1 
C1251: x48+x65 <=1 
C1252: x48+x66-y48_66 <=1 
C1253: x48+x67 <=1 
C1254: x49+x51-y49_51 <=1 
C1255: x49+x53-y49_53 <=1 
C1256: x49+x55-y49_55 <=1 
C1257: x49+x56-y49_56 <=1 
C1258: x49+x57-y49_57 <=1 
C1259: x49+x59 <=1 
C1260: x49+x60 <=1 
C1261: x49+x61 <=1 
C1262: x49+x62 <=1 
C1263: x49+x63 <=1 
C1264: x49+x64 <=1 
C1265: x49+x65-y49_65 <=1 
C1266: x49+x66 <=1 
C1267: x49+x67-y49_67 <=1 
C1268: x50+x51-y50_51 <=1 
C1269: x50+x54-y50_54 <=1 
C1270: x50+x56-y50_56 <=1 
C1271: x50+x58 <=1 
C1272: x50+x59-y50_59 <=1 
C1273: x50+x60-y50_60 <=1 
C1274: x50+x62 <=1 
C1275: x50+x64-y50_64 <=1 
C1276: x50+x67 <=1 
C1277: x51+x52-y51_52 <=1 
C1278: x51+x53 <=1 
C1279: x51+x54-y51_54 <=1 
C1280: x51+x55 <=1 
C1281: x51+x56-y51_56 <=1 
C1282: x51+x57-y51_57 <=1 
C1283: x51+x59-y51_59 <=1 
C1284: x51+x62 <=1 
C1285: x51+x63-y51_63 <=1 
C1286: x51+x64 <=1 
C1287: x51+x66-y51_66 <=1 
C1288: x52+x56 <=1 
C1289: x52+x59-y52_59 <=1 
C1290: x52+x60 <=1 
C1291: x52+x61 <=1 
C1292: x52+x63-y52_63 <=1 
C1293: x52+x64 <=1 
C1294: x52+x65 <=1 
C1295: x52+x66 <=1 
C1296: x53+x54 <=1 
C1297: x53+x55-y53_55 <=1 
C1298: x53+x56-y53_56 <=1 
C1299: x53+x57-y53_57 <=1 
C1300: x53+x58 <=1 
C1301: x53+x59-y53_59 <=1 
C1302: x53+x60-y53_60 <=1 
C1303: x53+x65-y53_65 <=1 
C1304: x53+x66-y53_66 <=1 
C1305: x54+x55 <=1 
C1306: x54+x56 <=1 
C1307: x54+x58-y54_58 <=1 
C1308: x54+x59 <=1 
C1309: x54+x60 <=1 
C1310: x54+x61 <=1 
C1311: x54+x64 <=1 
C1312: x54+x65-y54_65 <=1 
C1313: x55+x56 <=1 
C1314: x55+x57-y55_57 <=1 
C1315: x55+x58 <=1 
C1316: x55+x62-y55_62 <=1 
C1317: x55+x63-y55_63 <=1 
C1318: x55+x64-y55_64 <=1 
C1319: x55+x65 <=1 
C1320: x55+x66-y55_66 <=1 
C1321: x55+x67-y55_67 <=1 
C1322: x56+x59 <=1 
C1323: x56+x60 <=1 
C1324: x56+x61 <=1 
C1325: x56+x63-y56_63 <=1 
C1326: x56+x66-y56_66 <=1 
C1327: x56+x67-y56_67 <=1 
C1328: x57+x59 <=1 
C1329: x57+x60-y57_60 <=1 
C1330: x57+x63 <=1 
C1331: x57+x64-y57_64 <=1 
C1332: x57+x65-y57_65 <=1 
C1333: x57+x67 <=1 
C1334: x58+x65 <=1 
C1335: x59+x62 <=1 
C1336: x59+x63 <=1 
C1337: x59+x67-y59_67 <=1 
C1338: x60+x63 <=1 
C1339: x61+x62 <=1 
C1340: x61+x63 <=1 
C1341: x61+x65 <=1 
C1342: x61+x67 <=1 
C1343: x62+x64 <=1 
C1344: x62+x67-y62_67 <=1 
C1345: x63+x66-y63_66 <=1 
C1346: x64+x67 <=1 
C1347: x65+x67-y65_67 <=1 

binary
x0
x1
x2
x3
x4
x5
x6
x7
x8
x9
x10
x11
x12
x13
x14
x15
x16
x17
x18
x19
x20
x21
x22
x23
x24
x25
x26
x27
x28
x29
x30
x31
x32
x33
x34
x35
x36
x37
x38
x39
x40
x41
x42
x43
x44
x45
x46
x47
x48
x49
x50
x51
x52
x53
x54
x55
x56
x57
x58
x59
x60
x61
x62
x63
x64
x65
x66
x67
