problem_generation/data/GISP/train/er_n=68_m=1347_p=0.60_SET2_setparam=100.00_alpha=0.50_709.sol
objective value:                                 1275
x3                                                  1 	(obj:100)
x7                                                  1 	(obj:100)
x9                                                  1 	(obj:100)
x25                                                 1 	(obj:100)
x26                                                 1 	(obj:100)
x29                                                 1 	(obj:100)
x33                                                 1 	(obj:100)
x37                                                 1 	(obj:100)
x49                                                 1 	(obj:100)
x50                                                 1 	(obj:100)
x51                                                 1 	(obj:100)
x57                                                 1 	(obj:100)
x65                                                 1 	(obj:100)
y3_33                                               1 	(obj:-1)
y29_49                                              1 	(obj:-1)
y9_57                                               1 	(obj:-1)
y9_29                                               1 	(obj:-1)
y49_65                                              1 	(obj:-1)
y49_51                                              1 	(obj:-1)
y9_33                                               1 	(obj:-1)
y26_57                                              1 	(obj:-1)
y50_51                                              1 	(obj:-1)
y25_65                                              1 	(obj:-1)
y26_29                                              1 	(obj:-1)
y7_25                                               1 	(obj:-1)
y25_51                                              1 	(obj:-1)
y26_51                                              1 	(obj:-1)
y33_50                                              1 	(obj:-1)
y7_33                                               1 	(obj:-1)
y3_49                                               1 	(obj:-1)
y51_57                                              1 	(obj:-1)
y3_25                                               1 	(obj:-1)
y49_57                                              1 	(obj:-1)
y26_50                                              1 	(obj:-1)
y57_65                                              1 	(obj:-1)
y37_50                                              1 	(obj:-1)
y33_57                                              1 	(obj:-1)
y37_49                                              1 	(obj:-1)
